c generated by sgen
p cnf 117 244
-2 -3 -4 0
-1 -3 -4 0
-1 -2 -4 0
-1 -2 -3 0
-6 -7 -8 0
-5 -7 -8 0
-5 -6 -8 0
-5 -6 -7 0
-10 -11 -12 0
-9 -11 -12 0
-9 -10 -12 0
-9 -10 -11 0
-14 -15 -16 0
-13 -15 -16 0
-13 -14 -16 0
-13 -14 -15 0
-18 -19 -20 0
-17 -19 -20 0
-17 -18 -20 0
-17 -18 -19 0
-22 -23 -24 0
-21 -23 -24 0
-21 -22 -24 0
-21 -22 -23 0
-26 -27 -28 0
-25 -27 -28 0
-25 -26 -28 0
-25 -26 -27 0
-30 -31 -32 0
-29 -31 -32 0
-29 -30 -32 0
-29 -30 -31 0
-34 -35 -36 0
-33 -35 -36 0
-33 -34 -36 0
-33 -34 -35 0
-38 -39 -40 0
-37 -39 -40 0
-37 -38 -40 0
-37 -38 -39 0
-42 -43 -44 0
-41 -43 -44 0
-41 -42 -44 0
-41 -42 -43 0
-46 -47 -48 0
-45 -47 -48 0
-45 -46 -48 0
-45 -46 -47 0
-50 -51 -52 0
-49 -51 -52 0
-49 -50 -52 0
-49 -50 -51 0
-54 -55 -56 0
-53 -55 -56 0
-53 -54 -56 0
-53 -54 -55 0
-58 -59 -60 0
-57 -59 -60 0
-57 -58 -60 0
-57 -58 -59 0
-62 -63 -64 0
-61 -63 -64 0
-61 -62 -64 0
-61 -62 -63 0
-66 -67 -68 0
-65 -67 -68 0
-65 -66 -68 0
-65 -66 -67 0
-70 -71 -72 0
-69 -71 -72 0
-69 -70 -72 0
-69 -70 -71 0
-74 -75 -76 0
-73 -75 -76 0
-73 -74 -76 0
-73 -74 -75 0
-78 -79 -80 0
-77 -79 -80 0
-77 -78 -80 0
-77 -78 -79 0
-82 -83 -84 0
-81 -83 -84 0
-81 -82 -84 0
-81 -82 -83 0
-86 -87 -88 0
-85 -87 -88 0
-85 -86 -88 0
-85 -86 -87 0
-90 -91 -92 0
-89 -91 -92 0
-89 -90 -92 0
-89 -90 -91 0
-94 -95 -96 0
-93 -95 -96 0
-93 -94 -96 0
-93 -94 -95 0
-98 -99 -100 0
-97 -99 -100 0
-97 -98 -100 0
-97 -98 -99 0
-102 -103 -104 0
-101 -103 -104 0
-101 -102 -104 0
-101 -102 -103 0
-106 -107 -108 0
-105 -107 -108 0
-105 -106 -108 0
-105 -106 -107 0
-110 -111 -112 0
-109 -111 -112 0
-109 -110 -112 0
-109 -110 -111 0
-113 -114 -115 0
-113 -114 -116 0
-113 -114 -117 0
-113 -115 -116 0
-113 -115 -117 0
-113 -116 -117 0
-114 -115 -116 0
-114 -115 -117 0
-114 -116 -117 0
-115 -116 -117 0
113 95 6 0
15 95 6 0
15 113 6 0
15 113 95 0
2 17 8 0
66 17 8 0
66 2 8 0
66 2 17 0
24 106 36 0
30 106 36 0
30 24 36 0
30 24 106 0
105 62 14 0
109 62 14 0
109 105 14 0
109 105 62 0
20 57 73 0
16 57 73 0
16 20 73 0
16 20 57 0
102 69 112 0
49 69 112 0
49 102 112 0
49 102 69 0
23 58 41 0
52 58 41 0
52 23 41 0
52 23 58 0
26 116 43 0
110 116 43 0
110 26 43 0
110 26 116 0
33 117 44 0
79 117 44 0
79 33 44 0
79 33 117 0
21 101 18 0
96 101 18 0
96 21 18 0
96 21 101 0
38 86 104 0
63 86 104 0
63 38 104 0
63 38 86 0
53 83 10 0
94 83 10 0
94 53 10 0
94 53 83 0
60 64 78 0
98 64 78 0
98 60 78 0
98 60 64 0
5 70 108 0
11 70 108 0
11 5 108 0
11 5 70 0
88 55 114 0
50 55 114 0
50 88 114 0
50 88 55 0
82 45 59 0
35 45 59 0
35 82 59 0
35 82 45 0
42 103 54 0
31 103 54 0
31 42 54 0
31 42 103 0
91 61 67 0
9 61 67 0
9 91 67 0
9 91 61 0
115 99 76 0
32 99 76 0
32 115 76 0
32 115 99 0
19 40 89 0
56 40 89 0
56 19 89 0
56 19 40 0
7 25 46 0
90 25 46 0
90 7 46 0
90 7 25 0
29 84 39 0
27 84 39 0
27 29 39 0
27 29 84 0
12 1 97 0
28 1 97 0
28 12 97 0
28 12 1 0
93 37 65 0
100 37 65 0
100 93 65 0
100 93 37 0
3 85 71 0
34 85 71 0
34 3 71 0
34 3 85 0
22 111 87 0
47 111 87 0
47 22 87 0
47 22 111 0
92 51 80 0
13 51 80 0
13 92 80 0
13 92 51 0
68 75 72 0
48 75 72 0
48 68 72 0
48 68 75 0
4 81 74 0
4 81 77 0
4 81 107 0
4 74 77 0
4 74 107 0
4 77 107 0
81 74 77 0
81 74 107 0
81 77 107 0
74 77 107 0
